Version identifier: 22.1.0.0 | 2022-03-09 | 1a383f8ce
CPXPARAM_Threads                                 1
CPXPARAM_MIP_Strategy_VariableSelect             3
CPXPARAM_TimeLimit                               596.89481497099996
1 of 1 MIP starts provided solutions.
MIP start 'm1' defined initial solution with objective 280.0000.
Tried aggregator 1 time.
MIP Presolve eliminated 10 rows and 0 columns.
MIP Presolve modified 4 coefficients.
Reduced MIP has 2109 rows, 5700 columns, and 81414 nonzeros.
Reduced MIP has 5700 binaries, 0 generals, 0 SOSs, and 0 indicators.
Presolve time = 0.05 sec. (42.53 ticks)
Probing time = 0.00 sec. (4.27 ticks)
Tried aggregator 1 time.
Detecting symmetries...
MIP Presolve eliminated 1 rows and 0 columns.
Reduced MIP has 2108 rows, 5700 columns, and 81394 nonzeros.
Reduced MIP has 5700 binaries, 0 generals, 0 SOSs, and 0 indicators.
Presolve time = 0.06 sec. (46.52 ticks)
Probing time = 0.00 sec. (4.27 ticks)
Clique table members: 1193.
MIP emphasis: balance optimality and feasibility.
MIP search method: dynamic search.
Parallel mode: none, using 1 thread.
Root relaxation solution time = 1.48 sec. (1572.33 ticks)

        Nodes                                         Cuts/
   Node  Left     Objective  IInf  Best Integer    Best Bound    ItCnt     Gap

*     0+    0                          280.0000     5700.0000              --- 
      0     0      300.0000  1290      280.0000      300.0000     4880    7.14%
      0     0      300.0000  1200      280.0000      Cuts: 21    10690    7.14%
      0     0      300.0000  1264      280.0000      Cuts: 27    16559    7.14%
      0     0      300.0000  1226      280.0000      Cuts: 16    22395    7.14%
      0     0      300.0000  1181      280.0000      Cuts: 49    28540    7.14%
      0     0      300.0000  1257      280.0000      Cuts: 24    35731    7.14%
Detecting symmetries...
Heuristic still looking.
*     0+    0                          281.0000      300.0000             6.76%
      0     0        cutoff            281.0000      300.0000    35731    6.76%
Detecting symmetries...
      0     2      300.0000   888      281.0000      300.0000    35731    6.76%
Elapsed time = 104.99 sec. (112881.52 ticks, tree = 0.01 MB, solutions = 2)
      1     3      300.0000  1124      281.0000      300.0000    46986    6.76%
      2     4      300.0000  1161      281.0000      300.0000    53170    6.76%
      3     5      300.0000  1082      281.0000      300.0000    53199    6.76%
      4     6      300.0000  1149      281.0000      300.0000    59789    6.76%
      5     7      300.0000  1085      281.0000      300.0000    59900    6.76%
      6     8      300.0000  1166      281.0000      300.0000    61651    6.76%
      7     9      300.0000  1286      281.0000      300.0000    62654    6.76%
      8    10      300.0000  1228      281.0000      300.0000    63406    6.76%
      9    11      300.0000  1163      281.0000      300.0000    63433    6.76%
     11    13      300.0000  1164      281.0000      300.0000    65741    6.76%
Elapsed time = 120.25 sec. (129605.84 ticks, tree = 0.06 MB, solutions = 2)
     14    16      300.0000  1224      281.0000      300.0000    69749    6.76%
     16    18      300.0000  1253      281.0000      300.0000    75033    6.76%
     19    21      300.0000  1227      281.0000      300.0000    75329    6.76%
     20    22      300.0000  1211      281.0000      300.0000    76366    6.76%
     21    23      300.0000  1203      281.0000      300.0000    76463    6.76%
     22    24      300.0000  1213      281.0000      300.0000    84460    6.76%
     23    25      300.0000  1104      281.0000      300.0000    95413    6.76%
     25    27      300.0000  1097      281.0000      300.0000    96461    6.76%
     26    28      300.0000  1089      281.0000      300.0000    99472    6.76%
     27    29      300.0000  1119      281.0000      300.0000   100853    6.76%
Elapsed time = 145.10 sec. (156237.83 ticks, tree = 0.10 MB, solutions = 2)
     30    32      300.0000  1111      281.0000      300.0000   109320    6.76%
     31    33      300.0000  1112      281.0000      300.0000   109678    6.76%
     33    35      300.0000  1158      281.0000      300.0000   113071    6.76%
     36    38      300.0000  1096      281.0000      300.0000   113393    6.76%
     38    40      300.0000  1085      281.0000      300.0000   114168    6.76%
     40    42      300.0000   999      281.0000      300.0000   116654    6.76%
     41    43      299.7683  1049      281.0000      300.0000   128848    6.76%
     42    44      300.0000  1047      281.0000      300.0000   135944    6.76%
     44    46      299.0278  1008      281.0000      300.0000   137633    6.76%
     46    48      299.0278   915      281.0000      300.0000   139723    6.76%
Elapsed time = 160.53 sec. (172479.97 ticks, tree = 0.15 MB, solutions = 2)
     47    49      300.0000  1161      281.0000      300.0000   144280    6.76%
     49    49    infeasible            281.0000      300.0000   146123    6.76%
     51    51      300.0000   806      281.0000      300.0000   147884    6.76%
     53    53      299.9037  1020      281.0000      300.0000   160622    6.76%
     56    56      299.9932  1011      281.0000      300.0000   166087    6.76%
     58    58      300.0000   788      281.0000      300.0000   167817    6.76%
     59    59      299.9560  1076      281.0000      300.0000   179421    6.76%
     60    60      300.0000   842      281.0000      300.0000   187725    6.76%
     61    61      300.0000   838      281.0000      300.0000   196794    6.76%
     64    64      299.7709   949      281.0000      300.0000   204036    6.76%
Elapsed time = 185.39 sec. (198325.97 ticks, tree = 0.18 MB, solutions = 2)
     65    65      299.9072  1067      281.0000      300.0000   206845    6.76%
     67    65    infeasible            281.0000      300.0000   214590    6.76%
     69    66      299.8944   991      281.0000      300.0000   225262    6.76%
     71    68      300.0000   960      281.0000      300.0000   234496    6.76%
     72    69      299.9513  1033      281.0000      300.0000   237712    6.76%
     76    73      299.7951   965      281.0000      300.0000   243006    6.76%
     77    73      299.9916  1039      281.0000      300.0000   251573    6.76%
     80    76      299.6366  1043      281.0000      300.0000   255971    6.76%
     82    78      299.8880  1036      281.0000      300.0000   259242    6.76%
     84    80      299.8880  1039      281.0000      300.0000   261971    6.76%
Elapsed time = 202.96 sec. (216476.67 ticks, tree = 0.45 MB, solutions = 2)
     86    82      299.6773  1044      281.0000      300.0000   266475    6.76%
     87    82      299.9380  1039      281.0000      300.0000   269102    6.76%
     88    83      299.8677   950      281.0000      300.0000   274101    6.76%
     90    85      299.9380  1057      281.0000      300.0000   279130    6.76%
     93    88      299.9380  1049      281.0000      300.0000   279504    6.76%
     95    90      299.8894  1045      281.0000      300.0000   280444    6.76%
     97    92      299.8089  1006      281.0000      300.0000   282489    6.76%
    100    95      299.9380  1033      281.0000      300.0000   283128    6.76%
    102    97      299.0000  1012      281.0000      300.0000   283957    6.76%
    105   100      299.9380  1031      281.0000      300.0000   284765    6.76%
Elapsed time = 216.60 sec. (230978.54 ticks, tree = 0.81 MB, solutions = 2)
    107   102      299.9380  1035      281.0000      300.0000   286310    6.76%
    108   103      299.6322  1042      281.0000      300.0000   288404    6.76%
    111   106      299.6417   990      281.0000      300.0000   290491    6.76%
    113   108      299.6691  1063      281.0000      300.0000   298617    6.76%
    116   110      299.9374  1022      281.0000      300.0000   300089    6.76%
    119   113      299.9374  1022      281.0000      300.0000   302290    6.76%
    121   115      299.5000  1032      281.0000      300.0000   308670    6.76%
    123   117      299.5047  1035      281.0000      300.0000   312719    6.76%
    125   119      299.0000  1075      281.0000      300.0000   315305    6.76%
    127   121      299.6508  1029      281.0000      300.0000   323231    6.76%
Elapsed time = 230.32 sec. (245242.53 ticks, tree = 1.23 MB, solutions = 2)
    130   124      299.9374  1060      281.0000      300.0000   325223    6.76%
    131   125      299.7725  1047      281.0000      300.0000   331748    6.76%
    134   128      299.8341  1047      281.0000      300.0000   340505    6.76%
    136   130      299.8718  1020      281.0000      300.0000   343599    6.76%
    138   132      299.8718  1027      281.0000      300.0000   349107    6.76%
    139   133      299.6131   922      281.0000      300.0000   356469    6.76%
    140   134      299.8718  1020      281.0000      300.0000   356719    6.76%
    143   136      299.0000   993      281.0000      300.0000   357447    6.76%
    146   139      299.8718  1018      281.0000      300.0000   357918    6.76%
    148   141      299.6170   975      281.0000      300.0000   359560    6.76%
Elapsed time = 249.85 sec. (264247.20 ticks, tree = 1.60 MB, solutions = 2)
    151   143      299.4837   981      281.0000      300.0000   361950    6.76%
    153   145      299.0000   944      281.0000      300.0000   363190    6.76%
    157   149      299.0000  1014      281.0000      300.0000   364123    6.76%
    160   152      299.8718  1012      281.0000      300.0000   364906    6.76%
    163   153      299.8718  1007      281.0000      300.0000   366193    6.76%
    165   155      299.8718   989      281.0000      300.0000   367490    6.76%
    166   156      299.6062  1057      281.0000      300.0000   369432    6.76%
    169   159      299.7810  1008      281.0000      300.0000   371661    6.76%
    173   163      299.6845   998      281.0000      300.0000   373507    6.76%
    175   165      299.0000   970      281.0000      300.0000   375171    6.76%
Elapsed time = 262.47 sec. (278153.49 ticks, tree = 2.06 MB, solutions = 2)
    178   166    infeasible            281.0000      300.0000   376411    6.76%
    181   169      299.8718  1001      281.0000      300.0000   377077    6.76%
    182   170      299.6137   913      281.0000      300.0000   379306    6.76%
    184   172      299.5576  1050      281.0000      300.0000   381235    6.76%
    187   175      299.4401  1011      281.0000      300.0000   383781    6.76%
    190   178      299.8718   996      281.0000      300.0000   384878    6.76%
    192   180      299.8718   997      281.0000      300.0000   386206    6.76%
    195   181      299.4172   980      281.0000      300.0000   389150    6.76%
    198   184      299.8718   981      281.0000      300.0000   390139    6.76%
    203   188      299.3327   869      281.0000      300.0000   403977    6.76%
Elapsed time = 277.52 sec. (294590.04 ticks, tree = 2.49 MB, solutions = 2)
    209   194      299.3327   869      281.0000      300.0000   421228    6.76%
    215   198      298.7191   823      281.0000      300.0000   450161    6.76%
    219   202      298.6549   883      281.0000      300.0000   462244    6.76%
    227   210      297.9286   814      281.0000      300.0000   468158    6.76%
    235   217      297.5000   794      281.0000      300.0000   474436    6.76%
    242   223      297.3333   682      281.0000      300.0000   485296    6.76%
    249   229      297.0000   703      281.0000      300.0000   500839    6.76%
    258   238      297.3333   709      281.0000      300.0000   509011    6.76%
    260   240      297.3333   698      281.0000      300.0000   511073    6.76%
    269   247      297.0000   759      281.0000      300.0000   517701    6.76%
Elapsed time = 318.96 sec. (336618.92 ticks, tree = 3.58 MB, solutions = 2)
    277   254      296.5000   658      281.0000      300.0000   525595    6.76%
    283   260      296.0000   815      281.0000      300.0000   535717    6.76%
    294   271      296.0000   749      281.0000      300.0000   540111    6.76%
    300   277      295.9286   755      281.0000      300.0000   543392    6.76%
    312   289      295.5000   719      281.0000      300.0000   548139    6.76%
    324   298      295.0714   620      281.0000      300.0000   554191    6.76%
    335   307      294.3080   533      281.0000      300.0000   563443    6.76%
    348   319      294.3571   537      281.0000      300.0000   572293    6.76%
    362   329      293.0217   507      281.0000      300.0000   581428    6.76%
    377   340      291.4286   410      281.0000      300.0000   589684    6.76%
Elapsed time = 358.67 sec. (376830.26 ticks, tree = 5.35 MB, solutions = 2)
    390   350      291.4286   451      281.0000      300.0000   596380    6.76%
    409   362      291.0714   411      281.0000      300.0000   604341    6.76%
    430   372      285.0000   292      281.0000      300.0000   613828    6.76%
    466   389      285.0000   270      281.0000      300.0000   620680    6.76%
    494   392      299.8919   987      281.0000      300.0000   635093    6.76%
    502   400      299.8919  1004      281.0000      300.0000   639020    6.76%
    508   406      299.5367   958      281.0000      300.0000   646197    6.76%
    514   411      299.8919  1040      281.0000      300.0000   652752    6.76%
    520   413      299.8913  1042      281.0000      300.0000   655505    6.76%
    526   419      299.8913   999      281.0000      300.0000   659551    6.76%
Elapsed time = 408.22 sec. (426799.27 ticks, tree = 6.86 MB, solutions = 2)
    533   426      299.6456   973      281.0000      300.0000   665944    6.76%
    541   434      299.8913  1013      281.0000      300.0000   668674    6.76%
    548   441      299.7334  1047      281.0000      300.0000   675186    6.76%
    556   448      299.8913  1031      281.0000      300.0000   678501    6.76%
    564   455      299.8913   995      281.0000      300.0000   681911    6.76%
    571   460      299.8913  1004      281.0000      300.0000   687015    6.76%
    578   467      299.6080   985      281.0000      300.0000   692849    6.76%
    586   473      299.8913  1022      281.0000      300.0000   697413    6.76%
    594   479      299.8913  1024      281.0000      300.0000   701096    6.76%
    600   485      299.0000   959      281.0000      300.0000   704899    6.76%
Elapsed time = 453.28 sec. (476004.78 ticks, tree = 8.12 MB, solutions = 2)
    607   490      299.8093   987      281.0000      300.0000   709212    6.76%
    616   499      299.8093   989      281.0000      300.0000   712262    6.76%
    623   506      299.7788   962      281.0000      300.0000   717990    6.76%
    629   512      299.3881   928      281.0000      300.0000   726927    6.76%
    634   517      299.7788   979      281.0000      300.0000   732309    6.76%
    640   523      299.7788   981      281.0000      300.0000   735879    6.76%
    646   529      299.5074  1008      281.0000      300.0000   742996    6.76%
    654   536      299.4394   955      281.0000      300.0000   749532    6.76%
    660   542      299.4395  1035      281.0000      300.0000   755350    6.76%
    667   548      299.6965   984      281.0000      300.0000   761319    6.76%
Elapsed time = 495.09 sec. (521571.88 ticks, tree = 9.35 MB, solutions = 2)
    674   555      299.7786   932      281.0000      300.0000   766993    6.76%
    680   561      299.7786   924      281.0000      300.0000   771404    6.76%
    686   567      298.9843   913      281.0000      300.0000   780103    6.76%
    694   574      299.0000   884      281.0000      300.0000   785248    6.76%
    700   579      298.3114   857      281.0000      300.0000   791922    6.76%
    708   586      298.3037   837      281.0000      300.0000   797147    6.76%
    717   593      297.6584   835      281.0000      300.0000   802623    6.76%
    720   596      297.0000   835      281.0000      300.0000   803575    6.76%
    727   603      297.0000   841      281.0000      300.0000   809940    6.76%
    736   612      295.8349   785      281.0000      300.0000   815204    6.76%
Elapsed time = 539.31 sec. (568219.67 ticks, tree = 10.56 MB, solutions = 2)
    749   623      295.2581   711      281.0000      300.0000   819843    6.76%
    760   633      294.3180   680      281.0000      300.0000   825324    6.76%
    772   643      293.2500   613      281.0000      300.0000   831622    6.76%
    786   655      292.5575   599      281.0000      300.0000   838667    6.76%
Starting limited solution polishing.
*   800+  665                          282.0000      300.0000             6.38%
    800   667      292.5862   526      282.0000      300.0000   843663    6.38%
    817   681      291.1111   459      282.0000      300.0000   851765    6.38%
    838   696      290.5278   469      282.0000      300.0000   857196    6.38%
    859   714      290.4286   405      282.0000      300.0000   861810    6.38%
    881   731      290.4286   386      282.0000      300.0000   866783    6.38%
    900   737      287.5333   324      282.0000      300.0000   871955    6.38%
Elapsed time = 594.19 sec. (620073.56 ticks, tree = 12.97 MB, solutions = 3)

Clique cuts applied:  48
Zero-half cuts applied:  20

Root node processing (before b&c):
  Real time             =  104.93 sec. (112817.73 ticks)
Sequential b&c:
  Real time             =  491.96 sec. (509634.15 ticks)
                          ------------
Total (root+branch&cut) =  596.90 sec. (622451.88 ticks)
Primal:	282
Dual:	300
Status:	Feasible
Time:	596.84
Sequence:
	18
	6
	10
	7
	15
	0
	6
	15
	2
	10
	0
	6
	10
	7
	15
	0
	0
	15
	4
	10
	5
	10
	8
	10
	4
	10
	0
	5
	15
	3
	15
	5
	0
	15
	7
	10
	6
	15
	0
	2
	15
	6
	10
	7
	15
	0
	18
	4
	10
	2
	5
	0
	11
	7
	15
	0
	5
	11
	7
	15
	0
	13
	4
	10
	7
	15
	0
	17
	5
	10
	7
	15
	0
	17
	5
	10
	7
	10
	5
	15
	1
	15
	2
	15
	5
	12
	5
	15
	2
	15
	4
	13
	0
	15
	7
	11
	5
	2
	15
	0
	12
	5
	15
	2
	15
	0
	17
	5
	10
	7
	10
	5
	6
	10
	7
	10
	5
	12
	5
	10
	7
	15
	1
	15
	5
	10
	7
	15
	1
	15
	5
	10
	7
	10
	5
	2
	15
	1
	15
	0
	15
	7
	10
	5
	12
	0
	10
	7
	5
	10
	5
	15
	3
	15
	0
	15
	8
	10
	4
	10
	5
	7
	10
	5
	12
	0
	15
	7
	10
	0
	17
	0
	15
	7
	0
	15
	8
	10
	4
	10
	8
	0
	15
	7
	10
	5
	13
	4
	15
	2
	15
	5
	10
	8
	4
	10
	8
	10
	5
	7
	10
	4
	13
	5
	15
	2
	15
	5
	12
	5
	15
	2
	5
	15
	0
	3
	15
	0
	15
	8
	10
	4
	8
	10
	0
	15
	7
	10
	6
	15
	2
	5
	15
	1
	15
	7
	10
	5
	10
	8
	4
	10
	5
	10
	8
	4
	10
	8
	10
	0
	15
	2
	10
	5
	13
	4
	15
	2
	15
	5
	10
	8
	10
	4
	0
	15
	0
	15
	3
	5
	15
	0
	15
	3
	0
	15
	7
	10
	6
	15
	0
	15
